69 1042
2 6 8 11 16 19 21 27 30 31 32 40 43 46 48 52 55 58 59 63 64
2 3 7 9 11 15 21 22 23 25 26 27 28 30 34 40 41 47 49 50 56 57 59 60 61 62 66
0 1 6 8 13 14 18 22 24 25 26 28 29 30 32 33 35 41 42 46 47 48 49 52 54 56 57 61
1 7 8 10 12 15 16 20 21 23 24 26 27 32 34 38 39 40 45 47 48 49 50 55 60 61 62 68
6 7 9 10 11 16 18 19 20 23 25 26 27 29 30 32 33 35 36 37 39 40 44 46 49 52 53 56 57 58 60 63 65 67
6 17 18 20 21 23 26 31 32 37 38 40 42 43 47 48 49 50 54 55 57 58 61 62 66 67
0 2 4 5 9 13 14 19 20 21 22 23 24 28 31 32 33 36 37 38 40 42 43 46 47 50 52 58 61 63 65
1 3 4 8 10 13 15 18 20 22 27 29 30 33 34 35 36 37 42 45 48 49 51 53 54 55 59 61 62 63 65 66 68
0 2 3 7 11 14 15 16 17 20 21 22 24 28 32 36 37 40 41 43 47 49 50 51 52 53 54 56 57 63 64 65
1 4 6 13 14 18 20 21 24 25 26 27 29 31 33 34 38 39 41 42 43 44 45 47 48 49 50 51 53 54 57 59 60 61 63 68
3 4 7 11 13 17 18 23 25 26 27 28 32 35 36 39 40 41 43 45 47 48 51 52 54 56 63 64 66
0 1 4 8 10 23 25 28 32 33 36 38 39 41 42 44 45 47 50 51 52 54 55 57 58 60 61 62 63 64 65 67
3 14 21 24 25 31 33 34 39 40 44 47 48 51 53 55 56 57 58 61 62 64 65 66 67
2 6 7 9 10 14 21 24 25 27 28 30 34 35 38 39 41 42 48 51 52 58 59 61 63 65 67 68
2 6 8 9 12 13 16 17 18 19 27 30 32 35 36 40 42 43 44 46 47 48 49 50 51 54 55 58 61 62 64 65 66 68
1 3 7 8 16 19 20 23 24 30 36 38 39 40 41 43 45 46 47 49 51 53 54 56 58 60 61 62 64
0 3 4 8 14 15 21 23 27 29 33 39 42 45 46 53 57 59 60 62 63 67
5 8 10 14 18 22 23 26 27 28 31 32 33 35 38 39 40 44 45 48 50 51 52 53 55 61 66
2 4 5 7 9 10 14 17 21 23 25 28 29 30 32 36 42 44 48 49 54 55 57 58 59 62 68
0 4 6 14 15 20 21 22 24 25 29 34 36 37 41 44 45 46 52 53 56 57 58 59 60 62 63 64 65 68
3 4 5 6 7 8 9 15 19 21 23 24 28 30 31 33 35 36 37 40 41 42 44 45 47 48 54 55 59 60 61 62 63 65 66
0 1 3 5 6 8 9 12 13 16 18 19 20 25 30 33 34 35 39 40 41 43 44 46 48 51 52 54 55 56 63 65 67 68
1 2 6 7 8 17 19 26 29 31 34 35 36 41 43 45 46 47 48 49 52 53 54 56 57 58 59 60 61 62
1 3 4 5 6 10 11 15 16 17 18 20 25 26 28 32 37 38 39 42 45 47 48 49 56 57 59 60 65 66 67 68
2 3 6 8 9 12 13 15 19 20 27 29 32 35 45 47 49 57 58 60 68
1 2 4 9 10 11 12 13 18 19 21 23 26 27 29 30 31 33 34 36 39 40 43 46 48 49 51 53 54 55 56 57 61 62 63 64 68
1 2 3 4 5 9 10 17 22 23 25 27 31 34 37 38 40 42 43 44 46 47 49 50 51 53 63 65 66 67
0 1 3 4 7 9 10 13 14 16 17 24 25 26 28 31 34 40 42 45 48 49 50 53 58 59 60 62 63 65 67
1 2 6 8 10 11 13 17 18 20 23 27 29 31 33 34 37 38 40 43 47 49 50 53 55 57 58 59 60 61 63 64 66
2 4 7 9 16 18 19 22 24 25 28 33 35 37 39 40 42 45 46 47 52 58 60 67
0 1 2 4 7 13 14 15 18 20 21 25 33 35 37 38 40 41 47 48 49 50 52 53 63 64
0 5 6 9 12 17 20 22 25 26 27 28 34 35 38 40 43 44 45 46 47 49 50 54 58 61 62 64 66 67 68
0 2 3 4 5 6 8 10 11 14 17 18 23 24 33 34 42 44 45 47 48 49 50 51 53 55 56 57 58 59 62 64 65 66
2 4 6 7 9 11 12 16 17 20 21 25 28 29 30 32 35 36 39 41 42 43 48 50 52 53 54 58 60 66 67 68
1 3 7 9 12 13 19 21 22 25 26 27 28 31 32 38 40 41 42 44 45 49 55 56 58 59 61 66 68
2 4 7 10 13 14 17 20 21 22 24 29 30 31 33 40 43 45 46 48 51 52 54 55 56 57 58 59 61 63 64 68
4 6 7 8 10 11 14 15 18 19 20 22 25 33 42 50 51 54 55 56 57 60 61 64 66 67 68
4 5 6 7 8 19 20 23 26 28 29 30 38 41 43 45 48 49 50 51 52 53 55 57 58 59 60 62 63 64 66 67
3 5 6 9 11 13 15 17 23 26 28 30 31 34 37 41 42 45 48 49 58 59 64 65 68
3 4 9 10 11 12 13 15 16 17 21 23 25 29 33 42 44 46 48 51 57 59 62 66 67
0 1 3 4 5 6 8 10 12 14 15 17 20 21 25 26 27 28 29 30 31 34 35 44 47 49 50 52 53 56 60 62 63 64 65 66 67 68
1 2 8 9 10 11 13 15 19 20 21 22 30 33 34 37 38 42 44 45 46 47 52 53 58 64 65
2 5 6 7 9 11 13 14 16 18 20 23 26 27 29 32 33 34 36 38 39 41 43 44 47 51 52 54 56 61 62 63 64 66
0 5 6 8 9 10 14 15 21 22 25 26 28 31 33 35 37 42 44 47 48 51 52 54 56 57 62 65 66 67 68
4 9 11 12 14 17 18 19 20 21 26 31 32 34 39 40 41 42 43 45 46 47 48 49 50 52 53 55 58 60 62 64
3 7 9 10 11 15 16 17 19 20 22 23 24 27 29 31 32 34 35 37 38 41 44 48 50 51 53 63 66 68
0 2 4 6 14 15 16 19 21 22 25 26 29 31 35 39 41 44 47 48 49 50 52 55 59 60 62 65 67
1 2 3 5 6 8 9 10 11 12 14 15 20 22 23 24 26 28 29 30 31 32 40 41 42 43 44 46 52 54 59 62 64 68
0 2 3 5 7 9 10 12 13 14 17 18 20 21 22 23 25 27 30 32 33 35 37 38 39 43 44 45 46 50 53 54 57 63 68
1 2 3 4 5 7 8 9 14 15 18 22 23 24 25 26 27 28 30 31 32 34 37 38 40 44 46 63 64 68
1 3 5 6 8 9 11 14 17 26 27 28 30 31 32 33 36 37 40 44 45 46 48 53 55 56 57 60 61 64 66 67 68
7 8 9 10 11 12 13 14 15 17 21 25 26 32 35 36 37 39 42 43 45 52 53 54 56 57 61 63 64 65 66 67 68
0 2 4 6 8 10 11 13 17 19 21 22 29 30 33 35 37 40 41 42 43 44 46 47 51 54 56 58 60 61 64 66 68
4 7 8 9 12 15 16 17 19 22 25 26 27 28 30 32 33 37 40 41 44 45 48 50 51 54 58 60 65 66
2 5 7 8 9 10 11 14 15 18 20 21 22 25 31 33 35 36 42 43 47 48 51 52 53 55 59 60 63 67 68
0 3 5 7 11 12 14 17 18 20 21 25 28 32 34 35 36 37 44 46 50 54 56 58 59 62 63 66 68
1 2 4 8 10 12 15 19 21 22 23 25 32 34 35 36 40 42 43 50 51 52 55 57 58 59 62 63 65 67 68
1 2 4 5 8 9 11 12 16 18 19 22 23 24 25 28 32 35 36 37 39 43 48 50 51 56 59 60 61 64
0 4 5 6 11 12 13 14 15 18 19 22 24 27 28 29 31 32 33 34 35 37 38 41 44 52 53 55 56 66 68
0 1 7 9 13 16 18 19 20 22 23 27 28 32 34 35 37 38 39 46 47 54 55 56 57 61 62 66
1 3 4 9 11 15 16 19 20 22 23 24 27 28 29 33 36 37 40 44 46 50 52 53 54 57 61 62 66 67 68
1 2 3 5 6 7 9 11 12 13 14 15 17 20 22 25 28 31 34 35 36 42 50 51 52 57 59 60 62 63 66 67 68
1 3 5 7 11 12 14 15 16 18 19 20 22 25 27 31 32 37 39 40 42 43 44 46 47 55 56 59 60 61 66 67
0 4 6 7 8 9 10 11 13 16 19 20 21 25 26 27 28 30 35 37 40 42 45 48 49 51 54 55 56 61 64 67
0 8 10 11 12 14 15 19 25 28 30 31 32 35 36 37 38 40 41 42 44 47 49 50 51 52 57 63 67
4 6 7 8 11 12 13 14 19 20 21 23 26 27 32 38 40 41 43 46 51 53 56 66
1 5 7 10 12 14 17 20 23 26 28 31 32 33 34 36 37 39 40 42 43 45 50 51 52 53 55 58 59 60 61 62 65
4 5 11 12 13 16 21 23 26 27 29 31 33 36 37 39 40 43 46 50 51 54 56 60 61 62 63 64 68
3 7 9 13 14 18 19 21 23 24 25 31 33 34 35 36 38 40 43 45 47 48 49 50 51 52 54 55 56 58 60 61 67
